
Gurobi 12.0.2 (win64) logging started Wed Jun  4 16:52:49 2025

Set parameter LogFile to value "C:\Ioana\_uni\honours\slp\algorithm\Main_files\results\others\fatty_acids\Task_002_Sample002_irr_gurobi.log"
Gurobi Optimizer version 12.0.2 build v12.0.2rc0 (win64 - Windows 11.0 (26100.2))

CPU model: Intel(R) Core(TM) Ultra 5 125H, instruction set [SSE2|AVX|AVX2]
Thread count: 14 physical cores, 18 logical processors, using up to 18 threads

Non-default parameters:
TimeLimit  2200

Optimize a model with 47226 rows, 34495 columns and 146682 nonzeros
Model fingerprint: 0xc421cdfe
Variable types: 17250 continuous, 17245 integer (17245 binary)
Coefficient statistics:
  Matrix range     [1e-04, 8e+04]
  Objective range  [3e-05, 9e-01]
  Bounds range     [1e+00, 1e+03]
  RHS range        [1e+00, 1e+00]
Presolve removed 30824 rows and 21542 columns
Presolve time: 0.53s
Presolved: 16402 rows, 12953 columns, 54576 nonzeros
Variable types: 6410 continuous, 6543 integer (6543 binary)
Found heuristic solution: objective 20.9529863

Root relaxation: objective 1.010361e-04, 39 iterations, 0.02 seconds (0.01 work units)

    Nodes    |    Current Node    |     Objective Bounds      |     Work
 Expl Unexpl |  Obj  Depth IntInf | Incumbent    BestBd   Gap | It/Node Time

     0     0    0.00010    0    2   20.95299    0.00010   100%     -    0s
H    0     0                       0.1010361    0.00010   100%     -    0s
     0     0    0.00010    0    2    0.10104    0.00010   100%     -    0s

Explored 1 nodes (39 simplex iterations) in 0.72 seconds (0.46 work units)
Thread count was 18 (of 18 available processors)

Solution count 2: 0.101036 20.953 

Optimal solution found (tolerance 1.00e-04)
Best objective 1.010361479676e-01, best bound 1.010361479676e-01, gap 0.0000%

Gurobi 12.0.2 (win64) logging started Wed Jun  4 16:56:11 2025

Set parameter LogFile to value "C:\Ioana\_uni\honours\slp\algorithm\Main_files\results\others\fatty_acids\Task_002_Sample002_irr_gurobi.log"
Gurobi Optimizer version 12.0.2 build v12.0.2rc0 (win64 - Windows 11.0 (26100.2))

CPU model: Intel(R) Core(TM) Ultra 5 125H, instruction set [SSE2|AVX|AVX2]
Thread count: 14 physical cores, 18 logical processors, using up to 18 threads

Non-default parameters:
TimeLimit  2200

Optimize a model with 47226 rows, 34495 columns and 146682 nonzeros
Model fingerprint: 0xc421cdfe
Variable types: 17250 continuous, 17245 integer (17245 binary)
Coefficient statistics:
  Matrix range     [1e-04, 8e+04]
  Objective range  [3e-05, 9e-01]
  Bounds range     [1e+00, 1e+03]
  RHS range        [1e+00, 1e+00]
Presolve removed 30824 rows and 21542 columns
Presolve time: 0.50s
Presolved: 16402 rows, 12953 columns, 54576 nonzeros
Variable types: 6410 continuous, 6543 integer (6543 binary)
Found heuristic solution: objective 20.9529863

Root relaxation: objective 1.010361e-04, 39 iterations, 0.01 seconds (0.01 work units)

    Nodes    |    Current Node    |     Objective Bounds      |     Work
 Expl Unexpl |  Obj  Depth IntInf | Incumbent    BestBd   Gap | It/Node Time

     0     0    0.00010    0    2   20.95299    0.00010   100%     -    0s
H    0     0                       0.1010361    0.00010   100%     -    0s
     0     0    0.00010    0    2    0.10104    0.00010   100%     -    0s

Explored 1 nodes (39 simplex iterations) in 0.70 seconds (0.46 work units)
Thread count was 18 (of 18 available processors)

Solution count 2: 0.101036 20.953 

Optimal solution found (tolerance 1.00e-04)
Best objective 1.010361479676e-01, best bound 1.010361479676e-01, gap 0.0000%

Gurobi 12.0.2 (win64) logging started Thu Jun  5 15:33:14 2025

Set parameter LogFile to value "C:\Ioana\_uni\honours\slp\algorithm\Main_files\results\others\fatty_acids\Task_002_Sample002_irr_gurobi.log"
Gurobi Optimizer version 12.0.2 build v12.0.2rc0 (win64 - Windows 11.0 (26100.2))

CPU model: Intel(R) Core(TM) Ultra 5 125H, instruction set [SSE2|AVX|AVX2]
Thread count: 14 physical cores, 18 logical processors, using up to 18 threads

Non-default parameters:
TimeLimit  2200

Optimize a model with 47226 rows, 34495 columns and 146682 nonzeros
Model fingerprint: 0xc421cdfe
Variable types: 17250 continuous, 17245 integer (17245 binary)
Coefficient statistics:
  Matrix range     [1e-04, 8e+04]
  Objective range  [3e-05, 9e-01]
  Bounds range     [1e+00, 1e+03]
  RHS range        [1e+00, 1e+00]
Presolve removed 30824 rows and 21542 columns
Presolve time: 0.47s
Presolved: 16402 rows, 12953 columns, 54576 nonzeros
Variable types: 6410 continuous, 6543 integer (6543 binary)
Found heuristic solution: objective 20.9529863

Root relaxation: objective 1.010361e-04, 39 iterations, 0.02 seconds (0.01 work units)

    Nodes    |    Current Node    |     Objective Bounds      |     Work
 Expl Unexpl |  Obj  Depth IntInf | Incumbent    BestBd   Gap | It/Node Time

     0     0    0.00010    0    2   20.95299    0.00010   100%     -    0s
H    0     0                       0.1010361    0.00010   100%     -    0s
     0     0    0.00010    0    2    0.10104    0.00010   100%     -    0s

Explored 1 nodes (39 simplex iterations) in 0.66 seconds (0.46 work units)
Thread count was 18 (of 18 available processors)

Solution count 2: 0.101036 20.953 

Optimal solution found (tolerance 1.00e-04)
Best objective 1.010361479676e-01, best bound 1.010361479676e-01, gap 0.0000%
